\ Model tic_tac_toe
\ LP format - for model browsing. Use MPS format to capture full model detail.
Minimize
  lines[(1,_1,_1),(2,_1,_1),(3,_1,_1)]
   + lines[(1,_1,_1),(1,_2,_1),(1,_3,_1)]
   + lines[(1,_1,_1),(1,_1,_2),(1,_1,_3)]
   + lines[(1,_1,_1),(2,_2,_1),(3,_3,_1)]
   + lines[(1,_1,_1),(2,_1,_2),(3,_1,_3)]
   + lines[(1,_1,_1),(1,_2,_2),(1,_3,_3)]
   + lines[(1,_1,_2),(2,_1,_2),(3,_1,_2)]
   + lines[(1,_1,_2),(1,_2,_2),(1,_3,_2)]
   + lines[(1,_1,_2),(2,_2,_2),(3,_3,_2)]
   + lines[(1,_1,_3),(2,_1,_3),(3,_1,_3)]
   + lines[(1,_1,_3),(1,_2,_3),(1,_3,_3)]
   + lines[(1,_1,_3),(2,_2,_3),(3,_3,_3)]
   + lines[(1,_1,_3),(2,_1,_2),(3,_1,_1)]
   + lines[(1,_1,_3),(1,_2,_2),(1,_3,_1)]
   + lines[(1,_2,_1),(2,_2,_1),(3,_2,_1)]
   + lines[(1,_2,_1),(1,_2,_2),(1,_2,_3)]
   + lines[(1,_2,_1),(2,_2,_2),(3,_2,_3)]
   + lines[(1,_2,_2),(2,_2,_2),(3,_2,_2)]
   + lines[(1,_2,_3),(2,_2,_3),(3,_2,_3)]
   + lines[(1,_2,_3),(2,_2,_2),(3,_2,_1)]
   + lines[(1,_3,_1),(2,_3,_1),(3,_3,_1)]
   + lines[(1,_3,_1),(1,_3,_2),(1,_3,_3)]
   + lines[(1,_3,_1),(2,_2,_1),(3,_1,_1)]
   + lines[(1,_3,_1),(2,_3,_2),(3,_3,_3)]
   + lines[(1,_3,_2),(2,_3,_2),(3,_3,_2)]
   + lines[(1,_3,_2),(2,_2,_2),(3,_1,_2)]
   + lines[(1,_3,_3),(2,_3,_3),(3,_3,_3)]
   + lines[(1,_3,_3),(2,_2,_3),(3,_1,_3)]
   + lines[(1,_3,_3),(2,_3,_2),(3,_3,_1)]
   + lines[(2,_1,_1),(2,_2,_1),(2,_3,_1)]
   + lines[(2,_1,_1),(2,_1,_2),(2,_1,_3)]
   + lines[(2,_1,_1),(2,_2,_2),(2,_3,_3)]
   + lines[(2,_1,_2),(2,_2,_2),(2,_3,_2)]
   + lines[(2,_1,_3),(2,_2,_3),(2,_3,_3)]
   + lines[(2,_1,_3),(2,_2,_2),(2,_3,_1)]
   + lines[(2,_2,_1),(2,_2,_2),(2,_2,_3)]
   + lines[(2,_3,_1),(2,_3,_2),(2,_3,_3)]
   + lines[(3,_1,_1),(3,_2,_1),(3,_3,_1)]
   + lines[(3,_1,_1),(3,_1,_2),(3,_1,_3)]
   + lines[(3,_1,_1),(3,_2,_2),(3,_3,_3)]
   + lines[(3,_1,_2),(3,_2,_2),(3,_3,_2)]
   + lines[(3,_1,_3),(3,_2,_3),(3,_3,_3)]
   + lines[(3,_1,_3),(3,_2,_2),(3,_3,_1)]
   + lines[(3,_2,_1),(3,_2,_2),(3,_2,_3)]
   + lines[(3,_3,_1),(3,_3,_2),(3,_3,_3)]
   + lines[(1,_1,_1),(2,_2,_2),(3,_3,_3)]
   + lines[(3,_1,_1),(2,_2,_2),(1,_3,_3)]
   + lines[(1,_3,_1),(2,_2,_2),(2,_1,_2)]
   + lines[(1,_1,_3),(2,_2,_2),(3,_3,_1)]
Subject To
 cross: cross[1,1,1] + cross[1,1,2] + cross[1,1,3] + cross[1,2,1]
   + cross[1,2,2] + cross[1,2,3] + cross[1,3,1] + cross[1,3,2]
   + cross[1,3,3] + cross[2,1,1] + cross[2,1,2] + cross[2,1,3]
   + cross[2,2,1] + cross[2,2,2] + cross[2,2,3] + cross[2,3,1]
   + cross[2,3,2] + cross[2,3,3] + cross[3,1,1] + cross[3,1,2]
   + cross[3,1,3] + cross[3,2,1] + cross[3,2,2] + cross[3,2,3]
   + cross[3,3,1] + cross[3,3,2] + cross[3,3,3] = 14
 lines_constarint[(1,_1,_1),(2,_1,_1),(3,_1,_1)]: cross[1,1,1]
   + cross[2,1,1] + cross[3,1,1] - lines[(1,_1,_1),(2,_1,_1),(3,_1,_1)]
   <= 2
 lines_constarint[(1,_1,_1),(1,_2,_1),(1,_3,_1)]: cross[1,1,1]
   + cross[1,2,1] + cross[1,3,1] - lines[(1,_1,_1),(1,_2,_1),(1,_3,_1)]
   <= 2
 lines_constarint[(1,_1,_1),(1,_1,_2),(1,_1,_3)]: cross[1,1,1]
   + cross[1,1,2] + cross[1,1,3] - lines[(1,_1,_1),(1,_1,_2),(1,_1,_3)]
   <= 2
 lines_constarint[(1,_1,_1),(2,_2,_1),(3,_3,_1)]: cross[1,1,1]
   + cross[2,2,1] + cross[3,3,1] - lines[(1,_1,_1),(2,_2,_1),(3,_3,_1)]
   <= 2
 lines_constarint[(1,_1,_1),(2,_1,_2),(3,_1,_3)]: cross[1,1,1]
   + cross[2,1,2] + cross[3,1,3] - lines[(1,_1,_1),(2,_1,_2),(3,_1,_3)]
   <= 2
 lines_constarint[(1,_1,_1),(1,_2,_2),(1,_3,_3)]: cross[1,1,1]
   + cross[1,2,2] + cross[1,3,3] - lines[(1,_1,_1),(1,_2,_2),(1,_3,_3)]
   <= 2
 lines_constarint[(1,_1,_2),(2,_1,_2),(3,_1,_2)]: cross[1,1,2]
   + cross[2,1,2] + cross[3,1,2] - lines[(1,_1,_2),(2,_1,_2),(3,_1,_2)]
   <= 2
 lines_constarint[(1,_1,_2),(1,_2,_2),(1,_3,_2)]: cross[1,1,2]
   + cross[1,2,2] + cross[1,3,2] - lines[(1,_1,_2),(1,_2,_2),(1,_3,_2)]
   <= 2
 lines_constarint[(1,_1,_2),(2,_2,_2),(3,_3,_2)]: cross[1,1,2]
   + cross[2,2,2] + cross[3,3,2] - lines[(1,_1,_2),(2,_2,_2),(3,_3,_2)]
   <= 2
 lines_constarint[(1,_1,_3),(2,_1,_3),(3,_1,_3)]: cross[1,1,3]
   + cross[2,1,3] + cross[3,1,3] - lines[(1,_1,_3),(2,_1,_3),(3,_1,_3)]
   <= 2
 lines_constarint[(1,_1,_3),(1,_2,_3),(1,_3,_3)]: cross[1,1,3]
   + cross[1,2,3] + cross[1,3,3] - lines[(1,_1,_3),(1,_2,_3),(1,_3,_3)]
   <= 2
 lines_constarint[(1,_1,_3),(2,_2,_3),(3,_3,_3)]: cross[1,1,3]
   + cross[2,2,3] + cross[3,3,3] - lines[(1,_1,_3),(2,_2,_3),(3,_3,_3)]
   <= 2
 lines_constarint[(1,_1,_3),(2,_1,_2),(3,_1,_1)]: cross[1,1,3]
   + cross[2,1,2] + cross[3,1,1] - lines[(1,_1,_3),(2,_1,_2),(3,_1,_1)]
   <= 2
 lines_constarint[(1,_1,_3),(1,_2,_2),(1,_3,_1)]: cross[1,1,3]
   + cross[1,2,2] + cross[1,3,1] - lines[(1,_1,_3),(1,_2,_2),(1,_3,_1)]
   <= 2
 lines_constarint[(1,_2,_1),(2,_2,_1),(3,_2,_1)]: cross[1,2,1]
   + cross[2,2,1] + cross[3,2,1] - lines[(1,_2,_1),(2,_2,_1),(3,_2,_1)]
   <= 2
 lines_constarint[(1,_2,_1),(1,_2,_2),(1,_2,_3)]: cross[1,2,1]
   + cross[1,2,2] + cross[1,2,3] - lines[(1,_2,_1),(1,_2,_2),(1,_2,_3)]
   <= 2
 lines_constarint[(1,_2,_1),(2,_2,_2),(3,_2,_3)]: cross[1,2,1]
   + cross[2,2,2] + cross[3,2,3] - lines[(1,_2,_1),(2,_2,_2),(3,_2,_3)]
   <= 2
 lines_constarint[(1,_2,_2),(2,_2,_2),(3,_2,_2)]: cross[1,2,2]
   + cross[2,2,2] + cross[3,2,2] - lines[(1,_2,_2),(2,_2,_2),(3,_2,_2)]
   <= 2
 lines_constarint[(1,_2,_3),(2,_2,_3),(3,_2,_3)]: cross[1,2,3]
   + cross[2,2,3] + cross[3,2,3] - lines[(1,_2,_3),(2,_2,_3),(3,_2,_3)]
   <= 2
 lines_constarint[(1,_2,_3),(2,_2,_2),(3,_2,_1)]: cross[1,2,3]
   + cross[2,2,2] + cross[3,2,1] - lines[(1,_2,_3),(2,_2,_2),(3,_2,_1)]
   <= 2
 lines_constarint[(1,_3,_1),(2,_3,_1),(3,_3,_1)]: cross[1,3,1]
   + cross[2,3,1] + cross[3,3,1] - lines[(1,_3,_1),(2,_3,_1),(3,_3,_1)]
   <= 2
 lines_constarint[(1,_3,_1),(1,_3,_2),(1,_3,_3)]: cross[1,3,1]
   + cross[1,3,2] + cross[1,3,3] - lines[(1,_3,_1),(1,_3,_2),(1,_3,_3)]
   <= 2
 lines_constarint[(1,_3,_1),(2,_2,_1),(3,_1,_1)]: cross[1,3,1]
   + cross[2,2,1] + cross[3,1,1] - lines[(1,_3,_1),(2,_2,_1),(3,_1,_1)]
   <= 2
 lines_constarint[(1,_3,_1),(2,_3,_2),(3,_3,_3)]: cross[1,3,1]
   + cross[2,3,2] + cross[3,3,3] - lines[(1,_3,_1),(2,_3,_2),(3,_3,_3)]
   <= 2
 lines_constarint[(1,_3,_2),(2,_3,_2),(3,_3,_2)]: cross[1,3,2]
   + cross[2,3,2] + cross[3,3,2] - lines[(1,_3,_2),(2,_3,_2),(3,_3,_2)]
   <= 2
 lines_constarint[(1,_3,_2),(2,_2,_2),(3,_1,_2)]: cross[1,3,2]
   + cross[2,2,2] + cross[3,1,2] - lines[(1,_3,_2),(2,_2,_2),(3,_1,_2)]
   <= 2
 lines_constarint[(1,_3,_3),(2,_3,_3),(3,_3,_3)]: cross[1,3,3]
   + cross[2,3,3] + cross[3,3,3] - lines[(1,_3,_3),(2,_3,_3),(3,_3,_3)]
   <= 2
 lines_constarint[(1,_3,_3),(2,_2,_3),(3,_1,_3)]: cross[1,3,3]
   + cross[2,2,3] + cross[3,1,3] - lines[(1,_3,_3),(2,_2,_3),(3,_1,_3)]
   <= 2
 lines_constarint[(1,_3,_3),(2,_3,_2),(3,_3,_1)]: cross[1,3,3]
   + cross[2,3,2] + cross[3,3,1] - lines[(1,_3,_3),(2,_3,_2),(3,_3,_1)]
   <= 2
 lines_constarint[(2,_1,_1),(2,_2,_1),(2,_3,_1)]: cross[2,1,1]
   + cross[2,2,1] + cross[2,3,1] - lines[(2,_1,_1),(2,_2,_1),(2,_3,_1)]
   <= 2
 lines_constarint[(2,_1,_1),(2,_1,_2),(2,_1,_3)]: cross[2,1,1]
   + cross[2,1,2] + cross[2,1,3] - lines[(2,_1,_1),(2,_1,_2),(2,_1,_3)]
   <= 2
 lines_constarint[(2,_1,_1),(2,_2,_2),(2,_3,_3)]: cross[2,1,1]
   + cross[2,2,2] + cross[2,3,3] - lines[(2,_1,_1),(2,_2,_2),(2,_3,_3)]
   <= 2
 lines_constarint[(2,_1,_2),(2,_2,_2),(2,_3,_2)]: cross[2,1,2]
   + cross[2,2,2] + cross[2,3,2] - lines[(2,_1,_2),(2,_2,_2),(2,_3,_2)]
   <= 2
 lines_constarint[(2,_1,_3),(2,_2,_3),(2,_3,_3)]: cross[2,1,3]
   + cross[2,2,3] + cross[2,3,3] - lines[(2,_1,_3),(2,_2,_3),(2,_3,_3)]
   <= 2
 lines_constarint[(2,_1,_3),(2,_2,_2),(2,_3,_1)]: cross[2,1,3]
   + cross[2,2,2] + cross[2,3,1] - lines[(2,_1,_3),(2,_2,_2),(2,_3,_1)]
   <= 2
 lines_constarint[(2,_2,_1),(2,_2,_2),(2,_2,_3)]: cross[2,2,1]
   + cross[2,2,2] + cross[2,2,3] - lines[(2,_2,_1),(2,_2,_2),(2,_2,_3)]
   <= 2
 lines_constarint[(2,_3,_1),(2,_3,_2),(2,_3,_3)]: cross[2,3,1]
   + cross[2,3,2] + cross[2,3,3] - lines[(2,_3,_1),(2,_3,_2),(2,_3,_3)]
   <= 2
 lines_constarint[(3,_1,_1),(3,_2,_1),(3,_3,_1)]: cross[3,1,1]
   + cross[3,2,1] + cross[3,3,1] - lines[(3,_1,_1),(3,_2,_1),(3,_3,_1)]
   <= 2
 lines_constarint[(3,_1,_1),(3,_1,_2),(3,_1,_3)]: cross[3,1,1]
   + cross[3,1,2] + cross[3,1,3] - lines[(3,_1,_1),(3,_1,_2),(3,_1,_3)]
   <= 2
 lines_constarint[(3,_1,_1),(3,_2,_2),(3,_3,_3)]: cross[3,1,1]
   + cross[3,2,2] + cross[3,3,3] - lines[(3,_1,_1),(3,_2,_2),(3,_3,_3)]
   <= 2
 lines_constarint[(3,_1,_2),(3,_2,_2),(3,_3,_2)]: cross[3,1,2]
   + cross[3,2,2] + cross[3,3,2] - lines[(3,_1,_2),(3,_2,_2),(3,_3,_2)]
   <= 2
 lines_constarint[(3,_1,_3),(3,_2,_3),(3,_3,_3)]: cross[3,1,3]
   + cross[3,2,3] + cross[3,3,3] - lines[(3,_1,_3),(3,_2,_3),(3,_3,_3)]
   <= 2
 lines_constarint[(3,_1,_3),(3,_2,_2),(3,_3,_1)]: cross[3,1,3]
   + cross[3,2,2] + cross[3,3,1] - lines[(3,_1,_3),(3,_2,_2),(3,_3,_1)]
   <= 2
 lines_constarint[(3,_2,_1),(3,_2,_2),(3,_2,_3)]: cross[3,2,1]
   + cross[3,2,2] + cross[3,2,3] - lines[(3,_2,_1),(3,_2,_2),(3,_2,_3)]
   <= 2
 lines_constarint[(3,_3,_1),(3,_3,_2),(3,_3,_3)]: cross[3,3,1]
   + cross[3,3,2] + cross[3,3,3] - lines[(3,_3,_1),(3,_3,_2),(3,_3,_3)]
   <= 2
 lines_constarint[(1,_1,_1),(2,_2,_2),(3,_3,_3)]: cross[1,1,1]
   + cross[2,2,2] + cross[3,3,3] - lines[(1,_1,_1),(2,_2,_2),(3,_3,_3)]
   <= 2
 lines_constarint[(3,_1,_1),(2,_2,_2),(1,_3,_3)]: cross[1,3,3]
   + cross[2,2,2] + cross[3,1,1] - lines[(3,_1,_1),(2,_2,_2),(1,_3,_3)]
   <= 2
 lines_constarint[(1,_3,_1),(2,_2,_2),(2,_1,_2)]: cross[1,3,1]
   + cross[2,1,2] + cross[2,2,2] - lines[(1,_3,_1),(2,_2,_2),(2,_1,_2)]
   <= 2
 lines_constarint[(1,_1,_3),(2,_2,_2),(3,_3,_1)]: cross[1,1,3]
   + cross[2,2,2] + cross[3,3,1] - lines[(1,_1,_3),(2,_2,_2),(3,_3,_1)]
   <= 2
 cross_constarint[(1,_1,_1),(2,_1,_1),(3,_1,_1)]: cross[1,1,1]
   + cross[2,1,1] + cross[3,1,1] - lines[(1,_1,_1),(2,_1,_1),(3,_1,_1)]
   >= 1
 cross_constarint[(1,_1,_1),(1,_2,_1),(1,_3,_1)]: cross[1,1,1]
   + cross[1,2,1] + cross[1,3,1] - lines[(1,_1,_1),(1,_2,_1),(1,_3,_1)]
   >= 1
 cross_constarint[(1,_1,_1),(1,_1,_2),(1,_1,_3)]: cross[1,1,1]
   + cross[1,1,2] + cross[1,1,3] - lines[(1,_1,_1),(1,_1,_2),(1,_1,_3)]
   >= 1
 cross_constarint[(1,_1,_1),(2,_2,_1),(3,_3,_1)]: cross[1,1,1]
   + cross[2,2,1] + cross[3,3,1] - lines[(1,_1,_1),(2,_2,_1),(3,_3,_1)]
   >= 1
 cross_constarint[(1,_1,_1),(2,_1,_2),(3,_1,_3)]: cross[1,1,1]
   + cross[2,1,2] + cross[3,1,3] - lines[(1,_1,_1),(2,_1,_2),(3,_1,_3)]
   >= 1
 cross_constarint[(1,_1,_1),(1,_2,_2),(1,_3,_3)]: cross[1,1,1]
   + cross[1,2,2] + cross[1,3,3] - lines[(1,_1,_1),(1,_2,_2),(1,_3,_3)]
   >= 1
 cross_constarint[(1,_1,_2),(2,_1,_2),(3,_1,_2)]: cross[1,1,2]
   + cross[2,1,2] + cross[3,1,2] - lines[(1,_1,_2),(2,_1,_2),(3,_1,_2)]
   >= 1
 cross_constarint[(1,_1,_2),(1,_2,_2),(1,_3,_2)]: cross[1,1,2]
   + cross[1,2,2] + cross[1,3,2] - lines[(1,_1,_2),(1,_2,_2),(1,_3,_2)]
   >= 1
 cross_constarint[(1,_1,_2),(2,_2,_2),(3,_3,_2)]: cross[1,1,2]
   + cross[2,2,2] + cross[3,3,2] - lines[(1,_1,_2),(2,_2,_2),(3,_3,_2)]
   >= 1
 cross_constarint[(1,_1,_3),(2,_1,_3),(3,_1,_3)]: cross[1,1,3]
   + cross[2,1,3] + cross[3,1,3] - lines[(1,_1,_3),(2,_1,_3),(3,_1,_3)]
   >= 1
 cross_constarint[(1,_1,_3),(1,_2,_3),(1,_3,_3)]: cross[1,1,3]
   + cross[1,2,3] + cross[1,3,3] - lines[(1,_1,_3),(1,_2,_3),(1,_3,_3)]
   >= 1
 cross_constarint[(1,_1,_3),(2,_2,_3),(3,_3,_3)]: cross[1,1,3]
   + cross[2,2,3] + cross[3,3,3] - lines[(1,_1,_3),(2,_2,_3),(3,_3,_3)]
   >= 1
 cross_constarint[(1,_1,_3),(2,_1,_2),(3,_1,_1)]: cross[1,1,3]
   + cross[2,1,2] + cross[3,1,1] - lines[(1,_1,_3),(2,_1,_2),(3,_1,_1)]
   >= 1
 cross_constarint[(1,_1,_3),(1,_2,_2),(1,_3,_1)]: cross[1,1,3]
   + cross[1,2,2] + cross[1,3,1] - lines[(1,_1,_3),(1,_2,_2),(1,_3,_1)]
   >= 1
 cross_constarint[(1,_2,_1),(2,_2,_1),(3,_2,_1)]: cross[1,2,1]
   + cross[2,2,1] + cross[3,2,1] - lines[(1,_2,_1),(2,_2,_1),(3,_2,_1)]
   >= 1
 cross_constarint[(1,_2,_1),(1,_2,_2),(1,_2,_3)]: cross[1,2,1]
   + cross[1,2,2] + cross[1,2,3] - lines[(1,_2,_1),(1,_2,_2),(1,_2,_3)]
   >= 1
 cross_constarint[(1,_2,_1),(2,_2,_2),(3,_2,_3)]: cross[1,2,1]
   + cross[2,2,2] + cross[3,2,3] - lines[(1,_2,_1),(2,_2,_2),(3,_2,_3)]
   >= 1
 cross_constarint[(1,_2,_2),(2,_2,_2),(3,_2,_2)]: cross[1,2,2]
   + cross[2,2,2] + cross[3,2,2] - lines[(1,_2,_2),(2,_2,_2),(3,_2,_2)]
   >= 1
 cross_constarint[(1,_2,_3),(2,_2,_3),(3,_2,_3)]: cross[1,2,3]
   + cross[2,2,3] + cross[3,2,3] - lines[(1,_2,_3),(2,_2,_3),(3,_2,_3)]
   >= 1
 cross_constarint[(1,_2,_3),(2,_2,_2),(3,_2,_1)]: cross[1,2,3]
   + cross[2,2,2] + cross[3,2,1] - lines[(1,_2,_3),(2,_2,_2),(3,_2,_1)]
   >= 1
 cross_constarint[(1,_3,_1),(2,_3,_1),(3,_3,_1)]: cross[1,3,1]
   + cross[2,3,1] + cross[3,3,1] - lines[(1,_3,_1),(2,_3,_1),(3,_3,_1)]
   >= 1
 cross_constarint[(1,_3,_1),(1,_3,_2),(1,_3,_3)]: cross[1,3,1]
   + cross[1,3,2] + cross[1,3,3] - lines[(1,_3,_1),(1,_3,_2),(1,_3,_3)]
   >= 1
 cross_constarint[(1,_3,_1),(2,_2,_1),(3,_1,_1)]: cross[1,3,1]
   + cross[2,2,1] + cross[3,1,1] - lines[(1,_3,_1),(2,_2,_1),(3,_1,_1)]
   >= 1
 cross_constarint[(1,_3,_1),(2,_3,_2),(3,_3,_3)]: cross[1,3,1]
   + cross[2,3,2] + cross[3,3,3] - lines[(1,_3,_1),(2,_3,_2),(3,_3,_3)]
   >= 1
 cross_constarint[(1,_3,_2),(2,_3,_2),(3,_3,_2)]: cross[1,3,2]
   + cross[2,3,2] + cross[3,3,2] - lines[(1,_3,_2),(2,_3,_2),(3,_3,_2)]
   >= 1
 cross_constarint[(1,_3,_2),(2,_2,_2),(3,_1,_2)]: cross[1,3,2]
   + cross[2,2,2] + cross[3,1,2] - lines[(1,_3,_2),(2,_2,_2),(3,_1,_2)]
   >= 1
 cross_constarint[(1,_3,_3),(2,_3,_3),(3,_3,_3)]: cross[1,3,3]
   + cross[2,3,3] + cross[3,3,3] - lines[(1,_3,_3),(2,_3,_3),(3,_3,_3)]
   >= 1
 cross_constarint[(1,_3,_3),(2,_2,_3),(3,_1,_3)]: cross[1,3,3]
   + cross[2,2,3] + cross[3,1,3] - lines[(1,_3,_3),(2,_2,_3),(3,_1,_3)]
   >= 1
 cross_constarint[(1,_3,_3),(2,_3,_2),(3,_3,_1)]: cross[1,3,3]
   + cross[2,3,2] + cross[3,3,1] - lines[(1,_3,_3),(2,_3,_2),(3,_3,_1)]
   >= 1
 cross_constarint[(2,_1,_1),(2,_2,_1),(2,_3,_1)]: cross[2,1,1]
   + cross[2,2,1] + cross[2,3,1] - lines[(2,_1,_1),(2,_2,_1),(2,_3,_1)]
   >= 1
 cross_constarint[(2,_1,_1),(2,_1,_2),(2,_1,_3)]: cross[2,1,1]
   + cross[2,1,2] + cross[2,1,3] - lines[(2,_1,_1),(2,_1,_2),(2,_1,_3)]
   >= 1
 cross_constarint[(2,_1,_1),(2,_2,_2),(2,_3,_3)]: cross[2,1,1]
   + cross[2,2,2] + cross[2,3,3] - lines[(2,_1,_1),(2,_2,_2),(2,_3,_3)]
   >= 1
 cross_constarint[(2,_1,_2),(2,_2,_2),(2,_3,_2)]: cross[2,1,2]
   + cross[2,2,2] + cross[2,3,2] - lines[(2,_1,_2),(2,_2,_2),(2,_3,_2)]
   >= 1
 cross_constarint[(2,_1,_3),(2,_2,_3),(2,_3,_3)]: cross[2,1,3]
   + cross[2,2,3] + cross[2,3,3] - lines[(2,_1,_3),(2,_2,_3),(2,_3,_3)]
   >= 1
 cross_constarint[(2,_1,_3),(2,_2,_2),(2,_3,_1)]: cross[2,1,3]
   + cross[2,2,2] + cross[2,3,1] - lines[(2,_1,_3),(2,_2,_2),(2,_3,_1)]
   >= 1
 cross_constarint[(2,_2,_1),(2,_2,_2),(2,_2,_3)]: cross[2,2,1]
   + cross[2,2,2] + cross[2,2,3] - lines[(2,_2,_1),(2,_2,_2),(2,_2,_3)]
   >= 1
 cross_constarint[(2,_3,_1),(2,_3,_2),(2,_3,_3)]: cross[2,3,1]
   + cross[2,3,2] + cross[2,3,3] - lines[(2,_3,_1),(2,_3,_2),(2,_3,_3)]
   >= 1
 cross_constarint[(3,_1,_1),(3,_2,_1),(3,_3,_1)]: cross[3,1,1]
   + cross[3,2,1] + cross[3,3,1] - lines[(3,_1,_1),(3,_2,_1),(3,_3,_1)]
   >= 1
 cross_constarint[(3,_1,_1),(3,_1,_2),(3,_1,_3)]: cross[3,1,1]
   + cross[3,1,2] + cross[3,1,3] - lines[(3,_1,_1),(3,_1,_2),(3,_1,_3)]
   >= 1
 cross_constarint[(3,_1,_1),(3,_2,_2),(3,_3,_3)]: cross[3,1,1]
   + cross[3,2,2] + cross[3,3,3] - lines[(3,_1,_1),(3,_2,_2),(3,_3,_3)]
   >= 1
 cross_constarint[(3,_1,_2),(3,_2,_2),(3,_3,_2)]: cross[3,1,2]
   + cross[3,2,2] + cross[3,3,2] - lines[(3,_1,_2),(3,_2,_2),(3,_3,_2)]
   >= 1
 cross_constarint[(3,_1,_3),(3,_2,_3),(3,_3,_3)]: cross[3,1,3]
   + cross[3,2,3] + cross[3,3,3] - lines[(3,_1,_3),(3,_2,_3),(3,_3,_3)]
   >= 1
 cross_constarint[(3,_1,_3),(3,_2,_2),(3,_3,_1)]: cross[3,1,3]
   + cross[3,2,2] + cross[3,3,1] - lines[(3,_1,_3),(3,_2,_2),(3,_3,_1)]
   >= 1
 cross_constarint[(3,_2,_1),(3,_2,_2),(3,_2,_3)]: cross[3,2,1]
   + cross[3,2,2] + cross[3,2,3] - lines[(3,_2,_1),(3,_2,_2),(3,_2,_3)]
   >= 1
 cross_constarint[(3,_3,_1),(3,_3,_2),(3,_3,_3)]: cross[3,3,1]
   + cross[3,3,2] + cross[3,3,3] - lines[(3,_3,_1),(3,_3,_2),(3,_3,_3)]
   >= 1
 cross_constarint[(1,_1,_1),(2,_2,_2),(3,_3,_3)]: cross[1,1,1]
   + cross[2,2,2] + cross[3,3,3] - lines[(1,_1,_1),(2,_2,_2),(3,_3,_3)]
   >= 1
 cross_constarint[(3,_1,_1),(2,_2,_2),(1,_3,_3)]: cross[1,3,3]
   + cross[2,2,2] + cross[3,1,1] - lines[(3,_1,_1),(2,_2,_2),(1,_3,_3)]
   >= 1
 cross_constarint[(1,_3,_1),(2,_2,_2),(2,_1,_2)]: cross[1,3,1]
   + cross[2,1,2] + cross[2,2,2] - lines[(1,_3,_1),(2,_2,_2),(2,_1,_2)]
   >= 1
 cross_constarint[(1,_1,_3),(2,_2,_2),(3,_3,_1)]: cross[1,1,3]
   + cross[2,2,2] + cross[3,3,1] - lines[(1,_1,_3),(2,_2,_2),(3,_3,_1)]
   >= 1
Bounds
Binaries
 cross[1,1,1] cross[1,1,2] cross[1,1,3] cross[1,2,1] cross[1,2,2]
 cross[1,2,3] cross[1,3,1] cross[1,3,2] cross[1,3,3] cross[2,1,1]
 cross[2,1,2] cross[2,1,3] cross[2,2,1] cross[2,2,2] cross[2,2,3]
 cross[2,3,1] cross[2,3,2] cross[2,3,3] cross[3,1,1] cross[3,1,2]
 cross[3,1,3] cross[3,2,1] cross[3,2,2] cross[3,2,3] cross[3,3,1]
 cross[3,3,2] cross[3,3,3] lines[(1,_1,_1),(2,_1,_1),(3,_1,_1)]
 lines[(1,_1,_1),(1,_2,_1),(1,_3,_1)] lines[(1,_1,_1),(1,_1,_2),(1,_1,_3)]
 lines[(1,_1,_1),(2,_2,_1),(3,_3,_1)] lines[(1,_1,_1),(2,_1,_2),(3,_1,_3)]
 lines[(1,_1,_1),(1,_2,_2),(1,_3,_3)] lines[(1,_1,_2),(2,_1,_2),(3,_1,_2)]
 lines[(1,_1,_2),(1,_2,_2),(1,_3,_2)] lines[(1,_1,_2),(2,_2,_2),(3,_3,_2)]
 lines[(1,_1,_3),(2,_1,_3),(3,_1,_3)] lines[(1,_1,_3),(1,_2,_3),(1,_3,_3)]
 lines[(1,_1,_3),(2,_2,_3),(3,_3,_3)] lines[(1,_1,_3),(2,_1,_2),(3,_1,_1)]
 lines[(1,_1,_3),(1,_2,_2),(1,_3,_1)] lines[(1,_2,_1),(2,_2,_1),(3,_2,_1)]
 lines[(1,_2,_1),(1,_2,_2),(1,_2,_3)] lines[(1,_2,_1),(2,_2,_2),(3,_2,_3)]
 lines[(1,_2,_2),(2,_2,_2),(3,_2,_2)] lines[(1,_2,_3),(2,_2,_3),(3,_2,_3)]
 lines[(1,_2,_3),(2,_2,_2),(3,_2,_1)] lines[(1,_3,_1),(2,_3,_1),(3,_3,_1)]
 lines[(1,_3,_1),(1,_3,_2),(1,_3,_3)] lines[(1,_3,_1),(2,_2,_1),(3,_1,_1)]
 lines[(1,_3,_1),(2,_3,_2),(3,_3,_3)] lines[(1,_3,_2),(2,_3,_2),(3,_3,_2)]
 lines[(1,_3,_2),(2,_2,_2),(3,_1,_2)] lines[(1,_3,_3),(2,_3,_3),(3,_3,_3)]
 lines[(1,_3,_3),(2,_2,_3),(3,_1,_3)] lines[(1,_3,_3),(2,_3,_2),(3,_3,_1)]
 lines[(2,_1,_1),(2,_2,_1),(2,_3,_1)] lines[(2,_1,_1),(2,_1,_2),(2,_1,_3)]
 lines[(2,_1,_1),(2,_2,_2),(2,_3,_3)] lines[(2,_1,_2),(2,_2,_2),(2,_3,_2)]
 lines[(2,_1,_3),(2,_2,_3),(2,_3,_3)] lines[(2,_1,_3),(2,_2,_2),(2,_3,_1)]
 lines[(2,_2,_1),(2,_2,_2),(2,_2,_3)] lines[(2,_3,_1),(2,_3,_2),(2,_3,_3)]
 lines[(3,_1,_1),(3,_2,_1),(3,_3,_1)] lines[(3,_1,_1),(3,_1,_2),(3,_1,_3)]
 lines[(3,_1,_1),(3,_2,_2),(3,_3,_3)] lines[(3,_1,_2),(3,_2,_2),(3,_3,_2)]
 lines[(3,_1,_3),(3,_2,_3),(3,_3,_3)] lines[(3,_1,_3),(3,_2,_2),(3,_3,_1)]
 lines[(3,_2,_1),(3,_2,_2),(3,_2,_3)] lines[(3,_3,_1),(3,_3,_2),(3,_3,_3)]
 lines[(1,_1,_1),(2,_2,_2),(3,_3,_3)] lines[(3,_1,_1),(2,_2,_2),(1,_3,_3)]
 lines[(1,_3,_1),(2,_2,_2),(2,_1,_2)] lines[(1,_1,_3),(2,_2,_2),(3,_3,_1)]
End
